(declare-fun d_ack!86 () (_ BitVec 64))
(declare-fun b_ack!85 () (_ BitVec 32))
(declare-fun a_ack!88 () (_ BitVec 64))
(declare-fun c_ack!87 () (_ BitVec 64))
(declare-fun FPCHECK_FMUL_ACCURACY ((_ BitVec 64) (_ BitVec 64)) Bool)
(assert (fp.eq ((_ to_fp 11 53) d_ack!86) ((_ to_fp 11 53) #x0000000000000000)))
(assert (not (bvsle #x00000000 b_ack!85)))
(assert (fp.eq ((_ to_fp 11 53) a_ack!88) ((_ to_fp 11 53) #x0000000000000000)))
(assert (let ((a!1 (fp.lt (fp.abs (fp.div roundNearestTiesToEven
                                  ((_ to_fp 11 53) c_ack!87)
                                  ((_ to_fp 11 53) #x3ff0000000000000)))
                  ((_ to_fp 11 53) #x3cb0000000000000))))
  (not a!1)))
(assert (FPCHECK_FMUL_ACCURACY c_ack!87 c_ack!87))

(check-sat)
(exit)
